(set-logic ALL)
(set-option :produce-models true)
(declare-sort BoundSet 0)
(declare-sort UnboundSet 0)
(declare-fun HasIPhone (BoundSet) Bool)
(assert (not (=> (exists ((b BoundSet)) (HasIPhone b)) (exists ((c BoundSet)) (HasIPhone c)))))
(check-sat)
(get-model)